c "917040.clq"
p edge 100 1344
e 1 17
e 1 18
e 1 19
e 1 20
e 1 21
e 1 24
e 1 26
e 1 32
e 1 34
e 1 35
e 1 37
e 1 39
e 1 53
e 1 62
e 1 65
e 1 73
e 1 76
e 1 86
e 1 87
e 1 98
e 2 17
e 2 18
e 2 19
e 2 20
e 2 22
e 2 24
e 2 26
e 2 28
e 2 29
e 2 31
e 2 34
e 2 36
e 2 38
e 2 41
e 2 43
e 2 45
e 2 49
e 2 50
e 2 52
e 2 54
e 2 55
e 2 58
e 2 68
e 2 76
e 2 84
e 2 87
e 2 89
e 3 17
e 3 19
e 3 20
e 3 21
e 3 22
e 3 23
e 3 24
e 3 26
e 3 27
e 3 32
e 3 34
e 3 40
e 3 43
e 3 46
e 3 49
e 3 50
e 3 56
e 3 59
e 3 60
e 3 61
e 3 66
e 3 67
e 3 71
e 3 80
e 3 81
e 3 84
e 3 88
e 3 98
e 4 17
e 4 18
e 4 19
e 4 20
e 4 21
e 4 22
e 4 23
e 4 24
e 4 25
e 4 26
e 4 27
e 4 31
e 4 34
e 4 36
e 4 44
e 4 45
e 4 46
e 4 49
e 4 55
e 4 60
e 4 62
e 4 65
e 4 67
e 4 85
e 4 95
e 4 98
e 4 99
e 5 17
e 5 18
e 5 20
e 5 21
e 5 22
e 5 23
e 5 24
e 5 25
e 5 27
e 5 29
e 5 30
e 5 33
e 5 34
e 5 35
e 5 37
e 5 42
e 5 45
e 5 48
e 5 49
e 5 60
e 5 67
e 5 70
e 5 77
e 5 78
e 5 85
e 5 86
e 5 96
e 5 99
e 6 17
e 6 18
e 6 19
e 6 20
e 6 22
e 6 25
e 6 28
e 6 29
e 6 31
e 6 33
e 6 35
e 6 37
e 6 38
e 6 39
e 6 50
e 6 58
e 6 59
e 6 73
e 6 76
e 6 77
e 6 79
e 6 80
e 6 83
e 6 84
e 6 87
e 6 89
e 6 92
e 6 94
e 6 98
e 7 17
e 7 18
e 7 19
e 7 20
e 7 21
e 7 22
e 7 23
e 7 24
e 7 25
e 7 26
e 7 27
e 7 30
e 7 31
e 7 32
e 7 38
e 7 40
e 7 48
e 7 49
e 7 51
e 7 52
e 7 58
e 7 59
e 7 63
e 7 66
e 7 68
e 7 69
e 7 80
e 7 83
e 7 84
e 7 96
e 7 100
e 8 17
e 8 18
e 8 19
e 8 21
e 8 22
e 8 23
e 8 24
e 8 25
e 8 26
e 8 28
e 8 29
e 8 32
e 8 34
e 8 35
e 8 38
e 8 39
e 8 41
e 8 44
e 8 48
e 8 49
e 8 50
e 8 54
e 8 55
e 8 58
e 8 65
e 8 67
e 8 68
e 8 69
e 8 80
e 8 81
e 8 87
e 8 91
e 8 100
e 9 17
e 9 18
e 9 19
e 9 20
e 9 22
e 9 26
e 9 27
e 9 32
e 9 35
e 9 39
e 9 40
e 9 41
e 9 50
e 9 67
e 9 72
e 9 74
e 9 77
e 9 89
e 9 90
e 9 99
e 9 100
e 10 17
e 10 18
e 10 19
e 10 20
e 10 21
e 10 23
e 10 24
e 10 25
e 10 26
e 10 33
e 10 34
e 10 35
e 10 36
e 10 37
e 10 38
e 10 41
e 10 43
e 10 44
e 10 45
e 10 49
e 10 51
e 10 54
e 10 56
e 10 57
e 10 62
e 10 64
e 10 78
e 10 81
e 10 88
e 10 92
e 10 93
e 10 96
e 11 17
e 11 18
e 11 21
e 11 24
e 11 27
e 11 31
e 11 33
e 11 41
e 11 54
e 11 59
e 11 68
e 11 71
e 12 17
e 12 18
e 12 19
e 12 27
e 12 29
e 12 30
e 12 31
e 12 33
e 12 34
e 12 43
e 12 44
e 12 50
e 12 53
e 12 60
e 12 62
e 12 64
e 12 72
e 13 17
e 13 18
e 13 19
e 13 20
e 13 21
e 13 22
e 13 23
e 13 27
e 13 28
e 13 30
e 13 31
e 13 34
e 13 35
e 13 36
e 13 40
e 13 45
e 13 47
e 13 51
e 13 54
e 13 57
e 13 59
e 13 61
e 13 62
e 13 68
e 13 77
e 13 79
e 13 83
e 13 92
e 13 98
e 13 99
e 14 17
e 14 18
e 14 19
e 14 20
e 14 21
e 14 22
e 14 23
e 14 25
e 14 28
e 14 29
e 14 30
e 14 36
e 14 40
e 14 42
e 14 44
e 14 47
e 14 50
e 14 52
e 14 53
e 14 55
e 14 57
e 14 59
e 14 67
e 14 72
e 14 73
e 14 75
e 14 76
e 14 78
e 14 97
e 15 17
e 15 18
e 15 19
e 15 20
e 15 21
e 15 23
e 15 26
e 15 29
e 15 31
e 15 33
e 15 34
e 15 36
e 15 37
e 15 39
e 15 42
e 15 47
e 15 57
e 15 62
e 15 69
e 15 76
e 15 79
e 15 80
e 15 87
e 16 17
e 16 18
e 16 19
e 16 20
e 16 21
e 16 22
e 16 23
e 16 24
e 16 25
e 16 26
e 16 27
e 16 29
e 16 33
e 16 35
e 16 41
e 16 46
e 16 47
e 16 48
e 16 55
e 16 57
e 16 60
e 16 65
e 16 67
e 16 69
e 16 70
e 16 74
e 16 75
e 16 77
e 16 78
e 16 86
e 16 87
e 16 94
e 16 96
e 16 98
e 17 18
e 17 19
e 17 20
e 17 21
e 17 22
e 17 23
e 17 24
e 17 25
e 17 27
e 17 28
e 17 30
e 17 31
e 17 32
e 17 34
e 17 35
e 17 37
e 17 38
e 17 39
e 17 40
e 17 41
e 17 42
e 17 43
e 17 46
e 17 47
e 17 49
e 17 50
e 17 52
e 17 53
e 17 54
e 17 55
e 17 56
e 17 57
e 17 61
e 17 64
e 17 68
e 17 71
e 17 72
e 17 74
e 17 78
e 17 84
e 17 92
e 17 93
e 17 94
e 17 96
e 18 19
e 18 20
e 18 21
e 18 22
e 18 23
e 18 24
e 18 25
e 18 26
e 18 28
e 18 29
e 18 30
e 18 31
e 18 32
e 18 35
e 18 37
e 18 38
e 18 39
e 18 40
e 18 43
e 18 44
e 18 45
e 18 46
e 18 47
e 18 50
e 18 59
e 18 61
e 18 66
e 18 67
e 18 68
e 18 69
e 18 71
e 18 75
e 18 76
e 18 84
e 18 86
e 18 90
e 18 92
e 18 95
e 18 100
e 19 20
e 19 21
e 19 22
e 19 23
e 19 24
e 19 25
e 19 26
e 19 27
e 19 28
e 19 29
e 19 30
e 19 31
e 19 32
e 19 33
e 19 35
e 19 41
e 19 42
e 19 43
e 19 44
e 19 56
e 19 59
e 19 61
e 19 63
e 19 65
e 19 66
e 19 67
e 19 68
e 19 69
e 19 72
e 19 73
e 19 76
e 19 78
e 19 81
e 19 86
e 19 89
e 19 91
e 19 93
e 19 94
e 19 97
e 20 21
e 20 22
e 20 23
e 20 24
e 20 25
e 20 26
e 20 27
e 20 28
e 20 30
e 20 31
e 20 33
e 20 34
e 20 35
e 20 37
e 20 38
e 20 40
e 20 46
e 20 48
e 20 51
e 20 52
e 20 53
e 20 56
e 20 59
e 20 61
e 20 63
e 20 64
e 20 65
e 20 66
e 20 67
e 20 68
e 20 73
e 20 74
e 20 75
e 20 77
e 20 78
e 20 79
e 20 81
e 20 83
e 20 85
e 20 90
e 20 91
e 21 22
e 21 23
e 21 24
e 21 25
e 21 26
e 21 27
e 21 28
e 21 29
e 21 30
e 21 31
e 21 32
e 21 33
e 21 34
e 21 36
e 21 42
e 21 43
e 21 45
e 21 54
e 21 56
e 21 57
e 21 62
e 21 68
e 21 70
e 21 72
e 21 75
e 21 76
e 21 79
e 21 81
e 21 82
e 21 84
e 21 86
e 21 87
e 21 92
e 21 93
e 21 96
e 21 97
e 21 100
e 22 23
e 22 24
e 22 25
e 22 26
e 22 27
e 22 28
e 22 29
e 22 30
e 22 31
e 22 32
e 22 33
e 22 36
e 22 37
e 22 38
e 22 39
e 22 41
e 22 42
e 22 44
e 22 45
e 22 48
e 22 49
e 22 53
e 22 55
e 22 57
e 22 58
e 22 63
e 22 66
e 22 68
e 22 69
e 22 71
e 22 72
e 22 74
e 22 76
e 22 82
e 22 83
e 22 84
e 22 86
e 22 89
e 22 90
e 22 92
e 22 93
e 22 99
e 23 25
e 23 28
e 23 29
e 23 30
e 23 32
e 23 33
e 23 34
e 23 36
e 23 37
e 23 39
e 23 40
e 23 42
e 23 46
e 23 49
e 23 55
e 23 56
e 23 60
e 23 63
e 23 64
e 23 70
e 23 74
e 23 75
e 23 77
e 23 79
e 23 84
e 23 85
e 23 90
e 23 91
e 23 92
e 23 94
e 23 95
e 23 98
e 23 99
e 24 25
e 24 27
e 24 28
e 24 30
e 24 32
e 24 33
e 24 35
e 24 37
e 24 38
e 24 52
e 24 53
e 24 59
e 24 65
e 24 66
e 24 68
e 24 72
e 24 74
e 24 75
e 24 76
e 24 77
e 24 79
e 24 82
e 24 83
e 24 87
e 24 91
e 24 93
e 24 100
e 25 26
e 25 28
e 25 29
e 25 31
e 25 32
e 25 35
e 25 36
e 25 39
e 25 40
e 25 42
e 25 43
e 25 45
e 25 48
e 25 49
e 25 51
e 25 53
e 25 54
e 25 56
e 25 59
e 25 60
e 25 62
e 25 64
e 25 66
e 25 71
e 25 72
e 25 79
e 25 94
e 25 97
e 25 99
e 26 27
e 26 28
e 26 36
e 26 38
e 26 54
e 26 58
e 26 70
e 26 85
e 26 87
e 26 97
e 27 28
e 27 29
e 27 30
e 27 32
e 27 35
e 27 38
e 27 39
e 27 40
e 27 41
e 27 42
e 27 43
e 27 46
e 27 47
e 27 48
e 27 52
e 27 53
e 27 54
e 27 55
e 27 56
e 27 59
e 27 60
e 27 63
e 27 64
e 27 67
e 27 70
e 27 73
e 27 75
e 27 77
e 27 78
e 27 80
e 27 82
e 27 85
e 27 88
e 27 90
e 27 92
e 27 95
e 27 96
e 27 98
e 27 99
e 28 29
e 28 30
e 28 31
e 28 33
e 28 36
e 28 37
e 28 38
e 28 40
e 28 42
e 28 44
e 28 47
e 28 48
e 28 49
e 28 50
e 28 51
e 28 53
e 28 57
e 28 67
e 28 70
e 28 71
e 28 75
e 28 77
e 28 79
e 28 85
e 28 91
e 28 94
e 28 100
e 29 30
e 29 35
e 29 36
e 29 43
e 29 46
e 29 53
e 29 58
e 29 69
e 29 70
e 29 81
e 29 82
e 29 89
e 29 94
e 30 32
e 30 36
e 30 37
e 30 39
e 30 40
e 30 41
e 30 42
e 30 43
e 30 44
e 30 45
e 30 46
e 30 48
e 30 55
e 30 58
e 30 60
e 30 61
e 30 62
e 30 72
e 30 73
e 30 75
e 30 77
e 30 79
e 30 80
e 30 81
e 30 97
e 31 32
e 31 33
e 31 34
e 31 36
e 31 38
e 31 42
e 31 46
e 31 48
e 31 50
e 31 55
e 31 58
e 31 68
e 31 72
e 31 73
e 31 75
e 31 78
e 31 83
e 31 87
e 31 92
e 31 93
e 32 33
e 32 40
e 32 42
e 32 47
e 32 53
e 32 54
e 32 56
e 32 57
e 32 62
e 32 69
e 32 70
e 32 83
e 32 94
e 32 99
e 33 34
e 33 37
e 33 41
e 33 43
e 33 47
e 33 50
e 33 51
e 33 52
e 33 53
e 33 55
e 33 56
e 33 60
e 33 61
e 33 62
e 33 69
e 33 76
e 33 82
e 33 83
e 33 85
e 33 90
e 33 99
e 34 36
e 34 37
e 34 38
e 34 40
e 34 41
e 34 43
e 34 45
e 34 51
e 34 54
e 34 56
e 34 64
e 34 65
e 34 66
e 34 71
e 34 77
e 34 79
e 34 82
e 34 86
e 34 89
e 34 92
e 34 93
e 34 94
e 34 97
e 34 98
e 35 39
e 35 44
e 35 45
e 35 46
e 35 47
e 35 48
e 35 50
e 35 58
e 35 61
e 35 66
e 35 67
e 35 73
e 35 77
e 35 80
e 35 87
e 35 92
e 35 96
e 35 99
e 35 100
e 36 37
e 36 39
e 36 44
e 36 46
e 36 47
e 36 48
e 36 50
e 36 51
e 36 58
e 36 59
e 36 62
e 36 63
e 36 64
e 36 65
e 36 68
e 36 69
e 36 70
e 36 72
e 36 78
e 36 81
e 36 82
e 36 83
e 36 88
e 36 89
e 36 90
e 36 93
e 36 94
e 36 98
e 37 38
e 37 39
e 37 41
e 37 46
e 37 47
e 37 48
e 37 50
e 37 51
e 37 52
e 37 55
e 37 58
e 37 61
e 37 65
e 37 67
e 37 73
e 37 78
e 37 81
e 37 93
e 37 94
e 37 100
e 38 39
e 38 45
e 38 46
e 38 47
e 38 51
e 38 52
e 38 55
e 38 59
e 38 61
e 38 63
e 38 74
e 38 83
e 38 85
e 38 88
e 38 89
e 38 95
e 38 99
e 39 40
e 39 41
e 39 42
e 39 43
e 39 44
e 39 45
e 39 49
e 39 51
e 39 52
e 39 53
e 39 58
e 39 59
e 39 64
e 39 65
e 39 76
e 39 77
e 39 78
e 39 79
e 39 84
e 39 85
e 39 86
e 39 88
e 39 95
e 39 98
e 39 100
e 40 41
e 40 42
e 40 46
e 40 47
e 40 52
e 40 60
e 40 61
e 40 68
e 40 74
e 40 76
e 40 82
e 40 93
e 41 43
e 41 44
e 41 49
e 41 60
e 41 63
e 41 65
e 41 66
e 41 69
e 41 70
e 41 71
e 41 74
e 41 76
e 41 83
e 41 91
e 41 93
e 41 97
e 41 98
e 41 99
e 42 44
e 42 45
e 42 50
e 42 51
e 42 52
e 42 57
e 42 60
e 42 65
e 42 80
e 42 87
e 43 44
e 43 51
e 43 52
e 43 54
e 43 56
e 43 67
e 43 70
e 43 74
e 43 75
e 43 82
e 43 88
e 44 45
e 44 47
e 44 51
e 44 53
e 44 58
e 44 63
e 44 66
e 44 71
e 44 84
e 44 95
e 45 48
e 45 49
e 45 63
e 45 65
e 45 68
e 45 70
e 45 71
e 45 73
e 45 81
e 45 82
e 45 84
e 45 85
e 45 88
e 45 90
e 45 100
e 46 51
e 46 52
e 46 54
e 46 57
e 46 61
e 46 62
e 46 66
e 46 75
e 46 91
e 47 48
e 47 53
e 47 56
e 47 57
e 47 61
e 47 63
e 47 66
e 47 80
e 47 85
e 48 49
e 48 52
e 48 54
e 48 55
e 48 56
e 48 57
e 48 59
e 48 60
e 48 62
e 48 63
e 48 80
e 48 88
e 48 94
e 48 96
e 49 63
e 49 64
e 49 78
e 49 99
e 50 64
e 50 69
e 50 71
e 50 81
e 50 89
e 51 54
e 51 55
e 51 57
e 51 58
e 51 61
e 51 62
e 51 66
e 51 71
e 51 73
e 51 74
e 51 82
e 51 83
e 51 87
e 51 93
e 51 94
e 51 96
e 51 97
e 51 98
e 52 60
e 52 64
e 52 69
e 52 72
e 52 74
e 52 95
e 53 70
e 53 75
e 53 83
e 53 86
e 54 63
e 54 69
e 55 56
e 55 64
e 55 72
e 55 74
e 55 76
e 55 79
e 55 86
e 55 88
e 56 57
e 56 58
e 56 71
e 56 73
e 56 83
e 56 86
e 56 91
e 56 94
e 56 100
e 57 60
e 57 61
e 57 67
e 57 72
e 57 78
e 57 84
e 57 87
e 57 90
e 58 62
e 58 64
e 58 66
e 58 79
e 58 84
e 58 85
e 58 90
e 58 91
e 58 95
e 58 99
e 59 63
e 59 64
e 59 69
e 59 77
e 59 82
e 59 86
e 59 91
e 59 97
e 60 82
e 60 84
e 60 91
e 60 97
e 61 70
e 61 71
e 61 73
e 61 90
e 61 100
e 62 65
e 62 74
e 62 81
e 62 86
e 62 96
e 62 97
e 63 78
e 63 80
e 63 88
e 63 92
e 64 65
e 64 71
e 64 83
e 64 91
e 65 79
e 65 89
e 66 79
e 66 87
e 66 90
e 66 93
e 67 73
e 67 80
e 67 81
e 68 70
e 68 72
e 68 75
e 68 82
e 68 85
e 68 88
e 69 88
e 69 89
e 70 74
e 70 75
e 70 77
e 70 88
e 70 97
e 70 100
e 71 76
e 71 78
e 71 95
e 72 73
e 73 80
e 73 81
e 73 85
e 73 92
e 73 100
e 75 80
e 75 85
e 75 97
e 76 80
e 76 89
e 76 90
e 76 95
e 76 99
e 77 91
e 77 96
e 78 82
e 78 84
e 78 88
e 78 89
e 78 92
e 78 96
e 79 88
e 79 96
e 79 97
e 79 98
e 80 81
e 80 86
e 80 87
e 80 90
e 80 91
e 80 95
e 80 96
e 81 95
e 81 96
e 82 98
e 83 86
e 83 90
e 83 93
e 84 89
e 84 95
e 87 91
e 87 93
e 87 94
e 87 98
e 88 89
e 88 100
e 90 92
e 90 95
e 93 95
e 93 97
